(set-logic QF_SLIA)
(declare-fun var0 () String)
(declare-fun var1 () String)
(declare-fun var2 () String)
(declare-fun var3 () String)
(declare-fun var4 () String)
(declare-fun var5 () String)
(declare-fun var6 () String)
(declare-fun var7 () String)
(declare-fun var8 () String)
(declare-fun var9 () String)
(declare-fun var10 () String)
(declare-fun var11 () String)
(declare-fun var12 () String)
(declare-fun var13 () String)
(declare-fun var14 () String)
(declare-fun var15 () String)
(declare-fun var16 () String)
(declare-fun var17 () String)
(declare-fun var18 () String)
(declare-fun var19 () String)
(declare-fun var20 () Int)
(declare-fun var21 () Int)
(declare-fun var22 () Int)
(declare-fun var23 () Int)
(declare-fun var24 () Bool)
(declare-fun var25 () Bool)
(assert (>= (str.indexof (str.replace var3 var2 "UYU.mP3cP+") (str.replace var9 var2 "S""/^:5|psw") (str.len var17)) (str.indexof (str.substr var19 var21 var23) (str.substr var12 var23 var20) (str.len var13))))
(assert (str.prefixof (str.substr (str.replace "r]'J#$BuR)" var5 var3) (str.len var5) (str.indexof var19 var4 var20)) (str.at var17 var20)))
(assert (str.suffixof (str.at var13 var20) (str.at var15 var20)))
(assert (str.contains (str.replace var3 var1 var8) (str.replace "Btp]/n8MCJ" var19 var2)))
(assert (>= (str.len var11) (str.len var8)))
(assert (str.prefixof (str.replace ":s&7NW@!I6" var17 var12) (str.substr var9 var21 var21)))
(assert (not (> (str.indexof var9 var14 var22) (str.len var5))))
(assert (not (>= var21 var20)))
(assert (str.suffixof (str.substr var16 var23 var23) (str.substr var7 var22 var22)))
(assert (str.prefixof (str.at var2 var23) (str.substr (str.substr var18 var22 var20) (str.indexof var11 var16 var22) (str.len var9))))
(check-sat)